Route 1: 0 97 57 40 84 49 52 46 85 76 24 37 16 0
Route 2: 0 68 87 63 62 55 79 59 0
Route 3: 0 72 25 6 9 21 90 60 94 26 8 64 73 0
Route 4: 0 82 56 69 7 34 14 48 1 0
Route 5: 0 12 33 50 43 77 11 75 0
Route 6: 0 71 93 91 27 61 39 96 67 66 100 15 0
Route 7: 0 17 23 86 13 29 28 78 74 65 58 42 31 0
Route 8: 0 38 53 32 36 98 20 2 89 0
Route 9: 0 45 80 47 95 22 41 3 0
Route 10: 0 30 18 4 54 5 92 10 35 70 83 0
Route 11: 0 19 44 88 81 99 51 0
